p tw 83 96
1 2
2 3
11 12
12 13
12 14
13 14
14 15
15 16
16 17
17 18
17 19
18 19
18 21
19 20
20 82
3 4
21 22
22 23
24 25
25 26
26 27
26 60
27 28
28 29
29 30
30 31
4 5
31 32
32 33
33 34
34 35
35 36
36 37
37 38
37 63
38 39
39 40
39 45
40 41
5 6
41 42
42 43
42 45
43 44
44 45
45 46
46 47
47 48
48 49
49 50
50 51
50 56
6 23
6 7
51 52
52 53
53 54
53 56
54 55
55 56
56 57
57 58
58 59
59 60
59 61
60 61
7 8
61 62
62 82
63 64
64 65
65 66
65 67
66 82
67 68
68 69
69 70
70 71
70 79
8 9
71 72
72 73
73 74
73 76
74 75
75 76
76 77
77 78
78 79
79 80
80 81
9 10
81 82
82 83
10 11
10 24
